;  time  = 600
;  terms = 128
;  score = 0.42081447963800905
(set-logic QF_FP)
(declare-const x0 (_ FloatingPoint 8 24))
(declare-const x1 (_ FloatingPoint 8 24))
(declare-const x2 (_ FloatingPoint 8 24))
(declare-const x3 (_ FloatingPoint 8 24))
(declare-const x4 (_ FloatingPoint 8 24))
(declare-const x5 (_ FloatingPoint 8 24))
(declare-const x6 (_ FloatingPoint 8 24))
(declare-const x7 (_ FloatingPoint 8 24))
(declare-const x8 (_ FloatingPoint 8 24))
(declare-const x9 (_ FloatingPoint 8 24))
(declare-const x10 (_ FloatingPoint 8 24))
(declare-const x11 (_ FloatingPoint 8 24))
(declare-const x12 (_ FloatingPoint 8 24))
(declare-const x13 (_ FloatingPoint 8 24))
(declare-const x14 (_ FloatingPoint 8 24))
(assert (fp.gt (fp.neg (fp.mul RNE x3 (fp.add RNE x8 (fp.abs (fp.abs (fp.abs (fp.sub RNE (fp.neg (fp.neg x2)) x14))))))) (fp.sub RNE (fp.add RNE (fp.abs (fp.add RNE (fp.mul RNE x10 (fp.sub RNE x4 (fp.neg (fp.sub RNE x1 (fp.neg x5))))) (fp.sub RNE (fp.add RNE (fp.add RNE x12 x9) (fp.sub RNE (fp.mul RNE (fp.neg x1) (fp.abs x9)) (fp.neg x11))) (fp.abs (fp.add RNE (fp.sub RNE (fp.mul RNE x10 x6) (fp.add RNE x3 x12)) (fp.mul RNE (fp.add RNE x8 x0) (fp.mul RNE x3 x10))))))) (fp.mul RNE x3 (fp.abs (fp.sub RNE (fp.mul RNE x11 (fp.sub RNE (fp.mul RNE x5 (fp.add RNE x13 x7)) (fp.abs (fp.add RNE x0 x1)))) (fp.sub RNE (fp.sub RNE (fp.add RNE (fp.abs x0) (fp.mul RNE x8 x1)) (fp.abs (fp.abs x7))) x0))))) (fp.add RNE (fp.add RNE x7 (fp.neg (fp.add RNE (fp.neg x11) (fp.abs (fp.sub RNE (fp.sub RNE (fp.add RNE x3 x13) (fp.add RNE x8 x9)) (fp.sub RNE (fp.add RNE x14 x11) (fp.sub RNE x9 x12))))))) (fp.sub RNE (fp.abs (fp.sub RNE (fp.mul RNE (fp.mul RNE (fp.mul RNE (fp.neg x3) (fp.neg x14)) x9) x7) x14)) (fp.add RNE (fp.sub RNE x0 x14) (fp.abs (fp.add RNE x12 x5))))))))
(check-sat)